p edge 18 33
e 1 13
e 1 12
e 1 16
e 2 13
e 2 15
e 2 9
e 3 13
e 3 14
e 4 14
e 5 17
e 5 8
e 5 14
e 5 11
e 5 15
e 6 18
e 6 14
e 7 10
e 8 17
e 8 15
e 8 18
e 10 14
e 10 12
e 10 18
e 10 13
e 11 12
e 12 14
e 12 16
e 12 18
e 12 13
e 13 16
e 13 18
e 14 18
e 16 18
